(set-logic HORN)

(declare-datatype Nat ((Z) (S (nextnat Nat))))
(declare-datatype Tree ((leaf) (node (trn1 Nat) (ltree Tree) (rtree Tree))))
(declare-datatype Lst ((nil) (cons (car Nat) (cdr Lst))))
(declare-datatype Lst2 ((nil2) (cons2 (car1 Nat) (car2 Nat) (cdr2 Lst2))))
(declare-datatype Queue ((queue (queue1 Lst) (queue2 Lst))))


(declare-fun add (Nat Nat Nat) Bool)
(declare-fun lt (Nat Nat) Bool)
(declare-fun le (Nat Nat) Bool)
(declare-fun gt (Nat Nat) Bool)
(declare-fun ge (Nat Nat) Bool)
(assert (forall ((y Nat)) (add Z y y)))
(assert (forall ((x Nat) (y Nat) (z Nat)) (=> (add x y z) (add (S x) y (S z)))))
(assert (forall ((y Nat)) (lt Z (S y))))
(assert (forall ((x Nat) (y Nat)) (=> (lt x y) (lt (S x) (S y)))))
(assert (forall ((x Nat) (y Nat)) (=> (or (lt x y) (= x y)) (le x y))))
(assert (forall ((x Nat)) (gt (S x) Z)))
(assert (forall ((x Nat) (y Nat)) (=> (gt x y) (gt (S x) (S y)))))
(assert (forall ((x Nat) (y Nat)) (=> (or (gt x y) (= x y)) (ge x y))))

(declare-fun incorrect () Bool)
(declare-fun sumlist (Lst Nat) Bool)
(declare-fun append (Lst Lst Lst) Bool)
(assert (forall ((A Lst) (B Nat)) (=> (and (= B Z) (= A nil)) (sumlist A B))))
(assert (forall ((A Nat) (B Lst) (C Nat) (D Lst) (E Nat))
  (=> (and (sumlist B C) (= D (cons A B)) (add A C E)) (sumlist D E))))
(assert (forall ((A Lst) (B Lst)) (=> (= A nil) (append A B B))))
(assert (forall ((A Nat)
         (B Lst)
         (C Lst)
         (D Lst)
         (E Lst)
         (F Lst))
  (=> (and (append B E C) (= F (cons A C)) (= D (cons A B))) (append D E F))))
(assert (forall ((A Nat) (B Lst) (C Lst) (D Nat) (E Lst) (F Nat) (AD Nat))
  (let ((a!1 (and (sumlist E F)
                  (sumlist B A)
                  (append B C E)
                  (sumlist C D)
				  (add A D AD)
				  (= AD (S F)))))
    (=> a!1 incorrect))))
(assert (=> incorrect false))
(check-sat)

